c Standarized MaxSat Instance
c{
c "sha1sum": "9b0ba72d4c531763f89ca22b7e8b782b644a7243",
c "nvars": 545,
c "ncls": 445,
c "total_lits": 1650,
c "nhards": 5,
c "nhard_nlits": 8,
c "nhard_len_stats":
c    { "min": 1,
c      "max": 3,
c      "ave": 1.6000,
c      "stddev": 0.8000 },
c "nsofts": 440,
c "nsoft_nlits": 1642,
c "nsoft_len_stats":
c    { "min": 3,
c      "max": 8,
c      "ave": 3.7318,
c      "stddev": 1.1082 },
c "nsoft_wts": 1,
c "soft_wt_stats":
c    { "min": 1,
c      "max": 1,
c      "ave": 1.0000,
c      "stddev": 0.0000 }
c}
c------------------------------------------------------------
1 5 -1 -106 0
1 5 -2 -107 0
1 2 1 -5 -108 0
1 -5 4 -109 0
1 -3 4 -110 0
1 14 8 -111 0
1 9 14 -112 0
1 -14 -8 -9 -113 0
1 15 -2 -114 0
1 -13 15 -115 0
1 -15 2 13 -116 0
1 15 -6 -117 0
1 -7 15 -118 0
1 14 -6 -119 0
1 -7 14 -120 0
1 10 -6 -121 0
1 10 -7 -122 0
1 -11 -6 -123 0
1 -7 -11 -124 0
1 12 -6 -125 0
1 -7 12 -126 0
1 3 -17 20 -18 11 -9 -127 0
1 3 20 16 -18 11 -9 -128 0
1 3 20 -8 -18 11 -9 -129 0
1 3 -17 20 19 11 -9 -130 0
1 3 20 19 16 11 -9 -131 0
1 3 20 19 -8 11 -9 -132 0
1 27 23 -133 0
1 27 -22 -134 0
1 27 16 -135 0
1 27 24 -136 0
1 -23 22 -16 -24 -27 -137 0
1 28 -25 -138 0
1 28 -1 -139 0
1 25 1 -28 -140 0
1 26 -21 -141 0
1 28 -21 -142 0
1 27 26 -143 0
1 27 28 -144 0
1 -17 -3 -145 0
1 -3 -30 -146 0
1 31 -3 -147 0
1 1 -3 -148 0
1 -17 13 -149 0
1 13 -30 -150 0
1 13 31 -151 0
1 13 1 -152 0
1 -17 -29 -153 0
1 -29 -30 -154 0
1 31 -29 -155 0
1 1 -29 -156 0
1 -17 -6 -157 0
1 -6 -30 -158 0
1 31 -6 -159 0
1 1 -6 -160 0
1 -17 -4 -161 0
1 -4 -30 -162 0
1 31 -4 -163 0
1 1 -4 -164 0
1 -17 -21 -165 0
1 -21 -30 -166 0
1 31 -21 -167 0
1 1 -21 -168 0
1 32 -8 16 -169 0
1 -8 1 16 -170 0
1 -33 2 20 34 -32 -171 0
1 -13 -33 2 34 -32 -172 0
1 -36 29 -3 8 -6 -24 -173 0
1 -36 29 -3 8 35 -24 -174 0
1 29 41 -175 0
1 39 41 -176 0
1 41 18 -177 0
1 -41 -29 -39 -18 -178 0
1 42 -40 -179 0
1 42 -36 -180 0
1 40 36 -42 -181 0
1 42 38 11 37 -182 0
1 38 41 11 37 -183 0
1 45 8 -184 0
1 -43 45 -185 0
1 -8 -45 43 -186 0
1 46 13 -187 0
1 46 31 -188 0
1 -13 -31 -46 -189 0
1 47 -6 -190 0
1 47 44 -191 0
1 -47 -44 6 -192 0
1 47 19 3 -193 0
1 46 19 3 -194 0
1 45 47 19 -195 0
1 45 46 19 -196 0
1 51 49 -197 0
1 51 19 -198 0
1 -19 -49 -51 -199 0
1 48 36 -200 0
1 51 36 -201 0
1 50 48 -202 0
1 51 50 -203 0
1 -52 53 -204 0
1 -16 53 -205 0
1 52 16 -53 -206 0
1 38 -1 -207 0
1 53 -1 -208 0
1 -55 57 -209 0
1 -56 57 -210 0
1 55 -57 56 -211 0
1 58 -52 -212 0
1 58 -33 -213 0
1 52 33 -58 -214 0
1 25 6 54 -215 0
1 58 25 54 -216 0
1 34 6 54 -217 0
1 58 34 54 -218 0
1 25 6 17 -219 0
1 58 25 17 -220 0
1 34 6 17 -221 0
1 58 34 17 -222 0
1 25 6 57 -223 0
1 25 58 57 -224 0
1 34 6 57 -225 0
1 58 34 57 -226 0
1 25 6 22 -227 0
1 58 25 22 -228 0
1 34 6 22 -229 0
1 58 34 22 -230 0
1 60 -59 -231 0
1 60 -1 -232 0
1 59 1 -60 -233 0
1 -48 61 -234 0
1 -37 61 -235 0
1 -4 61 -236 0
1 48 -61 37 4 -237 0
1 61 19 -238 0
1 8 19 -239 0
1 19 -16 -240 0
1 60 61 -241 0
1 60 8 -242 0
1 60 -16 -243 0
1 -43 38 13 1 -244 0
1 -43 38 1 -39 -245 0
1 -43 38 1 54 -246 0
1 -43 38 1 62 -247 0
1 64 -37 -248 0
1 64 -62 -249 0
1 -64 37 62 -250 0
1 64 -63 -251 0
1 64 -9 -252 0
1 64 -26 -253 0
1 64 -38 -254 0
1 22 -63 -255 0
1 22 -9 -256 0
1 -26 22 -257 0
1 -38 22 -258 0
1 66 -54 -259 0
1 66 65 37 -260 0
1 -66 -65 54 -261 0
1 -66 -37 54 -262 0
1 -44 67 -263 0
1 39 67 -264 0
1 -39 -67 44 -265 0
1 -3 -38 67 -266 0
1 -3 66 -38 -267 0
1 48 -3 -38 -268 0
1 -50 -38 67 -269 0
1 -50 66 -38 -270 0
1 -50 48 -38 -271 0
1 -20 -38 67 -272 0
1 -20 66 -38 -273 0
1 -20 48 -38 -274 0
1 -68 1 -39 -275 0
1 -68 34 -39 -276 0
1 69 25 -277 0
1 69 26 -278 0
1 69 35 -279 0
1 69 22 -280 0
1 -25 -26 -35 -22 -69 -281 0
1 69 12 -19 44 -282 0
1 69 52 12 -19 -283 0
1 12 -19 -2 44 -284 0
1 52 12 -19 -2 -285 0
1 44 8 12 -19 -286 0
1 52 8 12 -19 -287 0
1 -19 59 -39 -288 0
1 65 -19 -39 -289 0
1 52 -63 -290 0
1 52 11 -291 0
1 52 -16 -292 0
1 52 -56 -293 0
1 9 -63 -294 0
1 9 11 -295 0
1 9 -16 -296 0
1 9 -56 -297 0
1 -25 48 55 -22 7 -298 0
1 70 -35 -299 0
1 -34 -13 70 -300 0
1 35 34 -70 -301 0
1 13 -70 35 -302 0
1 25 -29 55 6 -24 -30 54 -303 0
1 25 70 -29 6 -24 -30 54 -304 0
1 -20 71 -305 0
1 -7 -13 71 -306 0
1 71 -62 -307 0
1 -71 20 13 62 -308 0
1 -71 20 62 7 -309 0
1 -52 72 -310 0
1 -29 72 -311 0
1 52 29 -72 -312 0
1 72 -56 -8 -2 -313 0
1 71 -56 -8 -2 -314 0
1 73 43 -315 0
1 73 33 -316 0
1 -43 -73 -33 -317 0
1 74 -50 -318 0
1 -36 74 -319 0
1 12 74 -320 0
1 74 -8 -32 -321 0
1 74 -62 -322 0
1 -74 50 36 8 -12 62 -323 0
1 -74 50 32 36 -12 62 -324 0
1 74 39 -325 0
1 73 39 -326 0
1 48 75 -327 0
1 39 75 -328 0
1 -75 -39 -48 -329 0
1 -75 17 76 54 -330 0
1 20 76 -331 0
1 -20 -54 -76 -332 0
1 -20 -17 -76 -333 0
1 -20 -76 75 -334 0
1 65 55 -335 0
1 76 55 -336 0
1 77 39 -337 0
1 77 23 8 -338 0
1 -77 -23 -39 -339 0
1 -77 -8 -39 -340 0
1 77 22 -341 0
1 22 -49 -342 0
1 78 56 -343 0
1 78 49 -344 0
1 39 78 -345 0
1 -78 -56 -49 -39 -346 0
1 50 -26 78 -31 21 -347 0
1 50 -26 -8 -31 21 -348 0
1 79 48 -349 0
1 79 62 -350 0
1 -79 -48 -62 -351 0
1 -55 80 -352 0
1 80 7 -353 0
1 -7 55 -80 -354 0
1 30 -59 -63 -355 0
1 12 30 -63 -356 0
1 80 30 -63 -357 0
1 79 30 -59 -358 0
1 79 12 30 -359 0
1 79 80 30 -360 0
1 81 40 -361 0
1 33 81 -362 0
1 -40 -81 -33 -363 0
1 20 -10 -39 -364 0
1 81 -10 -39 -365 0
1 -25 82 -366 0
1 -7 -19 82 -367 0
1 25 7 -82 -368 0
1 25 19 -82 -369 0
1 -50 83 -370 0
1 -48 83 -371 0
1 50 48 -83 -372 0
1 -10 44 -373 0
1 44 -9 -374 0
1 49 44 -375 0
1 -10 83 -376 0
1 83 -9 -377 0
1 83 49 -378 0
1 -10 82 -379 0
1 82 -9 -380 0
1 82 49 -381 0
1 -10 -54 -382 0
1 -9 -54 -383 0
1 49 -54 -384 0
1 85 -16 -385 0
1 85 -8 -386 0
1 16 8 -85 -387 0
1 85 -54 -388 0
1 -84 85 -389 0
1 -16 86 -390 0
1 26 86 -391 0
1 -26 16 -86 -392 0
1 -7 -36 -21 -59 86 -393 0
1 -7 -10 -21 -59 86 -394 0
1 -7 -36 -21 -59 -1 -395 0
1 -7 -10 -21 -59 -1 -396 0
1 -7 -36 -11 -21 -59 -397 0
1 -7 -10 -11 -21 -59 -398 0
1 8 35 -22 -399 0
1 -10 8 35 -400 0
1 8 37 -22 -401 0
1 -10 8 37 -402 0
1 -84 87 -403 0
1 50 87 -404 0
1 -87 -50 84 -405 0
1 87 -6 -406 0
1 87 11 -407 0
1 87 -18 -408 0
1 12 -6 -409 0
1 11 12 -410 0
1 12 -18 -411 0
1 -6 -31 -412 0
1 11 -31 -413 0
1 -18 -31 -414 0
1 63 -6 -415 0
1 11 63 -416 0
1 63 -18 -417 0
1 -10 22 1 -418 0
1 12 22 1 -419 0
1 -84 22 1 -420 0
1 -43 22 1 -421 0
1 -10 30 1 -422 0
1 12 1 30 -423 0
1 -84 30 1 -424 0
1 -43 30 1 -425 0
1 9 55 -18 -48 62 -426 0
1 20 88 -427 0
1 52 88 -428 0
1 -20 -88 -52 -429 0
1 1 -48 31 -430 0
1 1 88 31 -431 0
1 89 44 -432 0
1 89 8 -433 0
1 -44 -89 -8 -434 0
1 89 12 -25 -35 59 -39 -435 0
1 12 -25 -35 59 -39 18 -436 0
1 89 12 -25 -35 38 59 -437 0
1 12 -25 -35 38 59 18 -438 0
1 89 12 -25 65 -35 59 -439 0
1 12 -25 65 -35 59 18 -440 0
1 90 -50 -441 0
1 -68 90 -442 0
1 50 68 -90 -443 0
1 29 91 -444 0
1 91 -90 -445 0
1 -29 90 -91 -446 0
1 92 -91 -447 0
1 65 92 -448 0
1 91 -92 -65 -449 0
1 -35 92 -450 0
1 93 40 -451 0
1 93 62 -452 0
1 93 -54 -453 0
1 -40 -93 -62 54 -454 0
1 93 36 -455 0
1 -34 36 -456 0
1 -36 94 -457 0
1 94 -54 -458 0
1 36 54 -94 -459 0
1 -44 55 -460 0
1 -26 55 -461 0
1 -44 94 -462 0
1 -26 94 -463 0
1 -44 32 -464 0
1 -26 32 -465 0
1 -44 9 -466 0
1 9 -26 -467 0
1 -13 95 -468 0
1 95 -11 -469 0
1 13 11 -95 -470 0
1 95 -35 -471 0
1 -35 31 -472 0
1 96 43 -473 0
1 -55 96 -474 0
1 96 16 -475 0
1 -43 55 -16 -96 -476 0
1 -68 97 -477 0
1 97 -62 -478 0
1 -97 68 62 -479 0
1 97 -11 84 -480 0
1 2 -11 84 -481 0
1 10 97 -11 -482 0
1 10 2 -11 -483 0
1 97 -11 96 -484 0
1 2 -11 96 -485 0
1 -20 98 -486 0
1 -33 98 -487 0
1 20 33 -98 -488 0
1 99 54 -489 0
1 68 99 59 44 -490 0
1 -44 -99 -54 -491 0
1 -99 -54 -59 -492 0
1 -68 -99 -54 -493 0
1 -11 98 -494 0
1 98 99 -495 0
1 -11 -2 -496 0
1 99 -2 -497 0
1 -11 -31 -498 0
1 99 -31 -499 0
1 -7 -29 32 6 -500 0
1 -7 -29 6 -65 -501 0
1 -7 -43 -29 6 -502 0
1 -7 -29 6 -54 -503 0
1 10 -55 12 -504 0
1 -55 12 56 -505 0
1 63 -55 12 -506 0
1 100 -33 -507 0
1 100 -63 -65 -508 0
1 63 33 -100 -509 0
1 33 65 -100 -510 0
1 101 43 -511 0
1 9 101 -512 0
1 -43 -101 -9 -513 0
1 49 -26 -514 0
1 101 -26 -515 0
1 49 -19 -516 0
1 101 -19 -517 0
1 100 49 -518 0
1 101 100 -519 0
1 49 18 -520 0
1 101 18 -521 0
1 49 62 -522 0
1 101 62 -523 0
1 102 -18 -524 0
1 102 68 -525 0
1 -68 -102 18 -526 0
1 -43 103 -527 0
1 103 -59 -528 0
1 43 59 -103 -529 0
1 -16 104 -530 0
1 -2 104 -531 0
1 -102 -103 104 -532 0
1 -104 2 103 16 -533 0
1 102 -104 2 16 -534 0
1 11 105 -535 0
1 105 84 -536 0
1 -84 -11 -105 -537 0
1 -52 104 -538 0
1 105 104 -539 0
1 10 -52 -540 0
1 105 10 -541 0
1 -34 -4 -52 59 -16 -9 49 -542 0
1 -34 -68 -4 -52 59 -9 49 -543 0
1 -4 -52 -35 59 -16 -9 49 -544 0
1 -68 -4 -52 -35 59 -9 49 -545 0
h 2 21 0
h -68 0
h 1 0
h -39 -62 24 0
h -22 0
